0
3356
3533
3623
3704
3792
3883
3959
4032
4104
4175
4248
4317
4383
4452
4528
4598
4675
4752
4820
4888
4957
5028
5093
5160
5225
5298
5366
5437
5515
5584
5651
5720
5793
5859
5930
5999
6067
6135
6203
6273
6342
6408
6474
6544
6611
6679
6749
6816
6884
6951
